p tw 160 32801 2 
1 82 
1 83 
1 85 
1 87 
1 89 
1 91 
1 94 
1 96 
1 98 
1 99 
1 101 
1 104 
1 105 
1 107 
1 109 
1 111 
1 113 
1 115 
1 117 
1 119 
1 122 
1 123 
1 125 
1 127 
1 130 
1 131 
1 133 
1 135 
1 137 
1 139 
1 141 
1 143 
1 145 
1 147 
1 149 
1 151 
1 154 
1 156 
1 158 
1 159 
2 81 
2 84 
2 86 
2 88 
2 90 
2 92 
2 93 
2 95 
2 97 
2 100 
2 102 
2 103 
2 106 
2 108 
2 110 
2 112 
2 114 
2 116 
2 118 
2 120 
2 121 
2 124 
2 126 
2 128 
2 129 
2 132 
2 134 
2 136 
2 138 
2 140 
2 142 
2 144 
2 146 
2 148 
2 150 
2 152 
2 153 
2 155 
2 157 
2 160 
3 4 
3 82 
3 84 
3 85 
3 88 
3 90 
3 92 
3 94 
3 96 
3 98 
3 100 
3 102 
3 104 
3 106 
3 108 
3 109 
3 112 
3 114 
3 116 
3 117 
3 119 
3 122 
3 124 
3 125 
3 128 
3 130 
3 131 
3 134 
3 136 
3 138 
3 140 
3 141 
3 144 
3 145 
3 148 
3 149 
3 151 
3 154 
3 156 
3 158 
3 160 
4 81 
4 83 
4 86 
4 87 
4 89 
4 91 
4 93 
4 95 
4 97 
4 99 
4 101 
4 103 
4 105 
4 107 
4 110 
4 111 
4 113 
4 115 
4 118 
4 120 
4 121 
4 123 
4 126 
4 127 
4 129 
4 132 
4 133 
4 135 
4 137 
4 139 
4 142 
4 143 
4 146 
4 147 
4 150 
4 152 
4 153 
4 155 
4 157 
4 159 
5 6 
5 81 
5 84 
5 86 
5 87 
5 89 
5 92 
5 94 
5 96 
5 98 
5 100 
5 102 
5 103 
5 106 
5 107 
5 109 
5 111 
5 113 
5 116 
5 118 
5 120 
5 121 
5 123 
5 125 
5 127 
5 129 
5 131 
5 133 
5 136 
5 138 
5 139 
5 141 
5 143 
5 146 
5 148 
5 149 
5 152 
5 153 
5 156 
5 158 
5 160 
6 82 
6 83 
6 85 
6 88 
6 90 
6 91 
6 93 
6 95 
6 97 
6 99 
6 101 
6 104 
6 105 
6 108 
6 110 
6 112 
6 114 
6 115 
6 117 
6 119 
6 122 
6 124 
6 126 
6 128 
6 130 
6 132 
6 134 
6 135 
6 137 
6 140 
6 142 
6 144 
6 145 
6 147 
6 150 
6 151 
6 154 
6 155 
6 157 
6 159 
7 8 
7 82 
7 83 
7 86 
7 88 
7 89 
7 91 
7 93 
7 96 
7 97 
7 100 
7 102 
7 103 
7 105 
7 107 
7 109 
7 111 
7 114 
7 116 
7 117 
7 120 
7 122 
7 124 
7 126 
7 127 
7 130 
7 132 
7 133 
7 136 
7 138 
7 139 
7 142 
7 144 
7 145 
7 147 
7 149 
7 151 
7 153 
7 156 
7 157 
7 160 
8 81 
8 84 
8 85 
8 87 
8 90 
8 92 
8 94 
8 95 
8 98 
8 99 
8 101 
8 104 
8 106 
8 108 
8 110 
8 112 
8 113 
8 115 
8 118 
8 119 
8 121 
8 123 
8 125 
8 128 
8 129 
8 131 
8 134 
8 135 
8 137 
8 140 
8 141 
8 143 
8 146 
8 148 
8 150 
8 152 
8 154 
8 155 
8 158 
8 159 
9 10 
9 82 
9 84 
9 86 
9 88 
9 89 
9 92 
9 94 
9 95 
9 97 
9 99 
9 101 
9 104 
9 106 
9 108 
9 109 
9 112 
9 113 
9 116 
9 117 
9 119 
9 121 
9 124 
9 126 
9 127 
9 130 
9 131 
9 133 
9 135 
9 138 
9 139 
9 141 
9 144 
9 146 
9 147 
9 150 
9 152 
9 153 
9 156 
9 157 
9 159 
10 81 
10 83 
10 85 
10 87 
10 90 
10 91 
10 93 
10 96 
10 98 
10 100 
10 102 
10 103 
10 105 
10 107 
10 110 
10 111 
10 114 
10 115 
10 118 
10 120 
10 122 
10 123 
10 125 
10 128 
10 129 
10 132 
10 134 
10 136 
10 137 
10 140 
10 142 
10 143 
10 145 
10 148 
10 149 
10 151 
10 154 
10 155 
10 158 
10 160 
11 12 
11 82 
11 83 
11 85 
11 87 
11 89 
11 92 
11 93 
11 96 
11 97 
11 99 
11 102 
11 103 
11 105 
11 108 
11 110 
11 112 
11 113 
11 116 
11 117 
11 120 
11 121 
11 124 
11 125 
11 128 
11 130 
11 132 
11 133 
11 136 
11 138 
11 139 
11 141 
11 143 
11 146 
11 148 
11 150 
11 151 
11 154 
11 155 
11 158 
11 159 
12 81 
12 84 
12 86 
12 88 
12 90 
12 91 
12 94 
12 95 
12 98 
12 100 
12 101 
12 104 
12 106 
12 107 
12 109 
12 111 
12 114 
12 115 
12 118 
12 119 
12 122 
12 123 
12 126 
12 127 
12 129 
12 131 
12 134 
12 135 
12 137 
12 140 
12 142 
12 144 
12 145 
12 147 
12 149 
12 152 
12 153 
12 156 
12 157 
12 160 
13 14 
13 82 
13 84 
13 85 
13 87 
13 89 
13 91 
13 93 
13 95 
13 97 
13 100 
13 102 
13 104 
13 106 
13 107 
13 110 
13 111 
13 114 
13 116 
13 117 
13 119 
13 121 
13 123 
13 126 
13 128 
13 129 
13 131 
13 133 
13 135 
13 138 
13 140 
13 142 
13 143 
13 146 
13 147 
13 150 
13 151 
13 154 
13 156 
13 158 
13 160 
14 81 
14 83 
14 86 
14 88 
14 90 
14 92 
14 94 
14 96 
14 98 
14 99 
14 101 
14 103 
14 105 
14 108 
14 109 
14 112 
14 113 
14 115 
14 118 
14 120 
14 122 
14 124 
14 125 
14 127 
14 130 
14 132 
14 134 
14 136 
14 137 
14 139 
14 141 
14 144 
14 145 
14 148 
14 149 
14 152 
14 153 
14 155 
14 157 
14 159 
15 16 
15 82 
15 84 
15 86 
15 87 
15 90 
15 92 
15 93 
15 95 
15 98 
15 99 
15 102 
15 103 
15 105 
15 107 
15 110 
15 111 
15 114 
15 116 
15 117 
15 120 
15 121 
15 123 
15 125 
15 127 
15 130 
15 131 
15 134 
15 136 
15 137 
15 140 
15 141 
15 144 
15 145 
15 147 
15 150 
15 152 
15 154 
15 156 
15 157 
15 159 
16 81 
16 83 
16 85 
16 88 
16 89 
16 91 
16 94 
16 96 
16 97 
16 100 
16 101 
16 104 
16 106 
16 108 
16 109 
16 112 
16 113 
16 115 
16 118 
16 119 
16 122 
16 124 
16 126 
16 128 
16 129 
16 132 
16 133 
16 135 
16 138 
16 139 
16 142 
16 143 
16 146 
16 148 
16 149 
16 151 
16 153 
16 155 
16 158 
16 160 
17 18 
17 81 
17 84 
17 85 
17 88 
17 90 
17 91 
17 93 
17 96 
17 97 
17 100 
17 102 
17 104 
17 105 
17 107 
17 109 
17 111 
17 113 
17 115 
17 118 
17 119 
17 121 
17 124 
17 125 
17 128 
17 130 
17 132 
17 133 
17 136 
17 137 
17 140 
17 141 
17 144 
17 146 
17 147 
17 150 
17 152 
17 153 
17 156 
17 158 
17 159 
18 82 
18 83 
18 86 
18 87 
18 89 
18 92 
18 94 
18 95 
18 98 
18 99 
18 101 
18 103 
18 106 
18 108 
18 110 
18 112 
18 114 
18 116 
18 117 
18 120 
18 122 
18 123 
18 126 
18 127 
18 129 
18 131 
18 134 
18 135 
18 138 
18 139 
18 142 
18 143 
18 145 
18 148 
18 149 
18 151 
18 154 
18 155 
18 157 
18 160 
19 20 
19 81 
19 84 
19 85 
19 88 
19 89 
19 92 
19 93 
19 96 
19 97 
19 99 
19 102 
19 103 
19 105 
19 107 
19 109 
19 112 
19 114 
19 116 
19 118 
19 119 
19 122 
19 124 
19 126 
19 127 
19 129 
19 131 
19 134 
19 135 
19 137 
19 139 
19 142 
19 143 
19 145 
19 148 
19 150 
19 152 
19 154 
19 156 
19 158 
19 159 
20 82 
20 83 
20 86 
20 87 
20 90 
20 91 
20 94 
20 95 
20 98 
20 100 
20 101 
20 104 
20 106 
20 108 
20 110 
20 111 
20 113 
20 115 
20 117 
20 120 
20 121 
20 123 
20 125 
20 128 
20 130 
20 132 
20 133 
20 136 
20 138 
20 140 
20 141 
20 144 
20 146 
20 147 
20 149 
20 151 
20 153 
20 155 
20 157 
20 160 
21 22 
21 82 
21 83 
21 86 
21 88 
21 89 
21 91 
21 94 
21 95 
21 98 
21 100 
21 101 
21 103 
21 105 
21 107 
21 109 
21 112 
21 114 
21 115 
21 117 
21 120 
21 121 
21 124 
21 126 
21 128 
21 129 
21 131 
21 134 
21 136 
21 137 
21 140 
21 141 
21 143 
21 146 
21 148 
21 150 
21 151 
21 153 
21 156 
21 158 
21 159 
22 81 
22 84 
22 85 
22 87 
22 90 
22 92 
22 93 
22 96 
22 97 
22 99 
22 102 
22 104 
22 106 
22 108 
22 110 
22 111 
22 113 
22 116 
22 118 
22 119 
22 122 
22 123 
22 125 
22 127 
22 130 
22 132 
22 133 
22 135 
22 138 
22 139 
22 142 
22 144 
22 145 
22 147 
22 149 
22 152 
22 154 
22 155 
22 157 
22 160 
23 24 
23 82 
23 84 
23 85 
23 87 
23 90 
23 92 
23 93 
23 95 
23 98 
23 100 
23 101 
23 103 
23 106 
23 108 
23 109 
23 111 
23 114 
23 115 
23 118 
23 119 
23 121 
23 124 
23 126 
23 127 
23 130 
23 132 
23 133 
23 136 
23 137 
23 139 
23 142 
23 143 
23 146 
23 148 
23 149 
23 151 
23 154 
23 156 
23 157 
23 159 
24 81 
24 83 
24 86 
24 88 
24 89 
24 91 
24 94 
24 96 
24 97 
24 99 
24 102 
24 104 
24 105 
24 107 
24 110 
24 112 
24 113 
24 116 
24 117 
24 120 
24 122 
24 123 
24 125 
24 128 
24 129 
24 131 
24 134 
24 135 
24 138 
24 140 
24 141 
24 144 
24 145 
24 147 
24 150 
24 152 
24 153 
24 155 
24 158 
24 160 
25 26 
25 81 
25 84 
25 86 
25 88 
25 89 
25 92 
25 93 
25 96 
25 97 
25 100 
25 101 
25 103 
25 106 
25 108 
25 110 
25 112 
25 114 
25 115 
25 117 
25 120 
25 122 
25 123 
25 125 
25 127 
25 129 
25 132 
25 133 
25 135 
25 137 
25 140 
25 141 
25 144 
25 146 
25 147 
25 149 
25 151 
25 154 
25 156 
25 158 
25 159 
26 82 
26 83 
26 85 
26 87 
26 90 
26 91 
26 94 
26 95 
26 98 
26 99 
26 102 
26 104 
26 105 
26 107 
26 109 
26 111 
26 113 
26 116 
26 118 
26 119 
26 121 
26 124 
26 126 
26 128 
26 130 
26 131 
26 134 
26 136 
26 138 
26 139 
26 142 
26 143 
26 145 
26 148 
26 150 
26 152 
26 153 
26 155 
26 157 
26 160 
27 28 
27 82 
27 83 
27 86 
27 87 
27 89 
27 91 
27 94 
27 96 
27 98 
27 100 
27 102 
27 104 
27 106 
27 108 
27 110 
27 111 
27 113 
27 116 
27 118 
27 120 
27 122 
27 124 
27 126 
27 127 
27 130 
27 132 
27 134 
27 135 
27 137 
27 140 
27 142 
27 144 
27 146 
27 148 
27 150 
27 152 
27 154 
27 156 
27 158 
27 159 
28 81 
28 84 
28 85 
28 88 
28 90 
28 92 
28 93 
28 95 
28 97 
28 99 
28 101 
28 103 
28 105 
28 107 
28 109 
28 112 
28 114 
28 115 
28 117 
28 119 
28 121 
28 123 
28 125 
28 128 
28 129 
28 131 
28 133 
28 136 
28 138 
28 139 
28 141 
28 143 
28 145 
28 147 
28 149 
28 151 
28 153 
28 155 
28 157 
28 160 
29 30 
29 81 
29 83 
29 86 
29 87 
29 89 
29 92 
29 93 
29 96 
29 98 
29 100 
29 101 
29 104 
29 106 
29 107 
29 110 
29 112 
29 114 
29 116 
29 118 
29 119 
29 121 
29 124 
29 125 
29 128 
29 130 
29 132 
29 134 
29 135 
29 137 
29 139 
29 141 
29 143 
29 145 
29 147 
29 150 
29 151 
29 153 
29 156 
29 157 
29 160 
30 82 
30 84 
30 85 
30 88 
30 90 
30 91 
30 94 
30 95 
30 97 
30 99 
30 102 
30 103 
30 105 
30 108 
30 109 
30 111 
30 113 
30 115 
30 117 
30 120 
30 122 
30 123 
30 126 
30 127 
30 129 
30 131 
30 133 
30 136 
30 138 
30 140 
30 142 
30 144 
30 146 
30 148 
30 149 
30 152 
30 154 
30 155 
30 158 
30 159 
31 32 
31 81 
31 84 
31 85 
31 87 
31 89 
31 91 
31 93 
31 95 
31 98 
31 99 
31 101 
31 104 
31 106 
31 107 
31 109 
31 112 
31 114 
31 116 
31 117 
31 120 
31 122 
31 124 
31 125 
31 127 
31 130 
31 132 
31 134 
31 136 
31 138 
31 140 
31 142 
31 143 
31 146 
31 147 
31 149 
31 152 
31 153 
31 155 
31 158 
31 159 
32 82 
32 83 
32 86 
32 88 
32 90 
32 92 
32 94 
32 96 
32 97 
32 100 
32 102 
32 103 
32 105 
32 108 
32 110 
32 111 
32 113 
32 115 
32 118 
32 119 
32 121 
32 123 
32 126 
32 128 
32 129 
32 131 
32 133 
32 135 
32 137 
32 139 
32 141 
32 144 
32 145 
32 148 
32 150 
32 151 
32 154 
32 156 
32 157 
32 160 
33 34 
33 81 
33 83 
33 86 
33 88 
33 90 
33 91 
33 93 
33 95 
33 98 
33 100 
33 102 
33 103 
33 105 
33 108 
33 110 
33 112 
33 113 
33 115 
33 117 
33 119 
33 121 
33 124 
33 125 
33 127 
33 130 
33 131 
33 134 
33 135 
33 138 
33 139 
33 142 
33 143 
33 146 
33 147 
33 149 
33 152 
33 154 
33 156 
33 158 
33 160 
34 82 
34 84 
34 85 
34 87 
34 89 
34 92 
34 94 
34 96 
34 97 
34 99 
34 101 
34 104 
34 106 
34 107 
34 109 
34 111 
34 114 
34 116 
34 118 
34 120 
34 122 
34 123 
34 126 
34 128 
34 129 
34 132 
34 133 
34 136 
34 137 
34 140 
34 141 
34 144 
34 145 
34 148 
34 150 
34 151 
34 153 
34 155 
34 157 
34 159 
35 36 
35 82 
35 84 
35 86 
35 87 
35 89 
35 91 
35 93 
35 95 
35 97 
35 99 
35 101 
35 104 
35 105 
35 108 
35 109 
35 111 
35 114 
35 115 
35 118 
35 120 
35 121 
35 124 
35 125 
35 128 
35 129 
35 132 
35 134 
35 135 
35 138 
35 139 
35 141 
35 144 
35 145 
35 148 
35 149 
35 152 
35 154 
35 156 
35 158 
35 160 
36 81 
36 83 
36 85 
36 88 
36 90 
36 92 
36 94 
36 96 
36 98 
36 100 
36 102 
36 103 
36 106 
36 107 
36 110 
36 112 
36 113 
36 116 
36 117 
36 119 
36 122 
36 123 
36 126 
36 127 
36 130 
36 131 
36 133 
36 136 
36 137 
36 140 
36 142 
36 143 
36 146 
36 147 
36 150 
36 151 
36 153 
36 155 
36 157 
36 159 
37 38 
37 82 
37 84 
37 85 
37 87 
37 90 
37 91 
37 94 
37 96 
37 97 
37 100 
37 101 
37 103 
37 106 
37 107 
37 110 
37 112 
37 114 
37 115 
37 117 
37 120 
37 121 
37 124 
37 125 
37 127 
37 130 
37 131 
37 133 
37 135 
37 137 
37 139 
37 142 
37 144 
37 145 
37 148 
37 150 
37 152 
37 153 
37 155 
37 158 
37 160 
38 81 
38 83 
38 86 
38 88 
38 89 
38 92 
38 93 
38 95 
38 98 
38 99 
38 102 
38 104 
38 105 
38 108 
38 109 
38 111 
38 113 
38 116 
38 118 
38 119 
38 122 
38 123 
38 126 
38 128 
38 129 
38 132 
38 134 
38 136 
38 138 
38 140 
38 141 
38 143 
38 146 
38 147 
38 149 
38 151 
38 154 
38 156 
38 157 
38 159 
39 40 
39 82 
39 84 
39 85 
39 87 
39 90 
39 91 
39 93 
39 96 
39 98 
39 100 
39 101 
39 103 
39 105 
39 108 
39 109 
39 112 
39 113 
39 116 
39 118 
39 120 
39 122 
39 123 
39 125 
39 128 
39 129 
39 131 
39 134 
39 135 
39 138 
39 139 
39 142 
39 144 
39 146 
39 147 
39 150 
39 151 
39 153 
39 156 
39 157 
39 159 
40 81 
40 83 
40 86 
40 88 
40 89 
40 92 
40 94 
40 95 
40 97 
40 99 
40 102 
40 104 
40 106 
40 107 
40 110 
40 111 
40 114 
40 115 
40 117 
40 119 
40 121 
40 124 
40 126 
40 127 
40 130 
40 132 
40 133 
40 136 
40 137 
40 140 
40 141 
40 143 
40 145 
40 148 
40 149 
40 152 
40 154 
40 155 
40 158 
40 160 
41 42 
41 81 
41 83 
41 86 
41 87 
41 90 
41 92 
41 94 
41 95 
41 97 
41 100 
41 101 
41 103 
41 105 
41 108 
41 109 
41 111 
41 114 
41 116 
41 117 
41 119 
41 122 
41 123 
41 125 
41 128 
41 130 
41 132 
41 133 
41 135 
41 138 
41 140 
41 142 
41 143 
41 145 
41 148 
41 150 
41 152 
41 153 
41 156 
41 158 
41 159 
42 82 
42 84 
42 85 
42 88 
42 89 
42 91 
42 93 
42 96 
42 98 
42 99 
42 102 
42 104 
42 106 
42 107 
42 110 
42 112 
42 113 
42 115 
42 118 
42 120 
42 121 
42 124 
42 126 
42 127 
42 129 
42 131 
42 134 
42 136 
42 137 
42 139 
42 141 
42 144 
42 146 
42 147 
42 149 
42 151 
42 154 
42 155 
42 157 
42 160 
43 44 
43 82 
43 83 
43 85 
43 88 
43 90 
43 92 
43 93 
43 96 
43 98 
43 100 
43 101 
43 104 
43 105 
43 107 
43 110 
43 111 
43 114 
43 116 
43 117 
43 119 
43 121 
43 123 
43 126 
43 127 
43 129 
43 132 
43 134 
43 135 
43 138 
43 139 
43 141 
43 144 
43 146 
43 148 
43 149 
43 152 
43 153 
43 155 
43 158 
43 159 
44 81 
44 84 
44 86 
44 87 
44 89 
44 91 
44 94 
44 95 
44 97 
44 99 
44 102 
44 103 
44 106 
44 108 
44 109 
44 112 
44 113 
44 115 
44 118 
44 120 
44 122 
44 124 
44 125 
44 128 
44 130 
44 131 
44 133 
44 136 
44 137 
44 140 
44 142 
44 143 
44 145 
44 147 
44 150 
44 151 
44 154 
44 156 
44 157 
44 160 
45 46 
45 81 
45 84 
45 85 
45 88 
45 89 
45 91 
45 94 
45 96 
45 98 
45 100 
45 101 
45 103 
45 105 
45 108 
45 110 
45 111 
45 114 
45 116 
45 118 
45 120 
45 121 
45 124 
45 126 
45 128 
45 130 
45 131 
45 133 
45 135 
45 138 
45 140 
45 141 
45 143 
45 145 
45 147 
45 149 
45 152 
45 154 
45 155 
45 157 
45 159 
46 82 
46 83 
46 86 
46 87 
46 90 
46 92 
46 93 
46 95 
46 97 
46 99 
46 102 
46 104 
46 106 
46 107 
46 109 
46 112 
46 113 
46 115 
46 117 
46 119 
46 122 
46 123 
46 125 
46 127 
46 129 
46 132 
46 134 
46 136 
46 137 
46 139 
46 142 
46 144 
46 146 
46 148 
46 150 
46 151 
46 153 
46 156 
46 158 
46 160 
47 48 
47 81 
47 83 
47 85 
47 88 
47 90 
47 91 
47 93 
47 95 
47 98 
47 99 
47 101 
47 103 
47 106 
47 107 
47 109 
47 112 
47 113 
47 116 
47 118 
47 120 
47 121 
47 123 
47 126 
47 127 
47 130 
47 132 
47 133 
47 135 
47 138 
47 140 
47 141 
47 144 
47 145 
47 148 
47 150 
47 151 
47 154 
47 156 
47 158 
47 160 
48 82 
48 84 
48 86 
48 87 
48 89 
48 92 
48 94 
48 96 
48 97 
48 100 
48 102 
48 104 
48 105 
48 108 
48 110 
48 111 
48 114 
48 115 
48 117 
48 119 
48 122 
48 124 
48 125 
48 128 
48 129 
48 131 
48 134 
48 136 
48 137 
48 139 
48 142 
48 143 
48 146 
48 147 
48 149 
48 152 
48 153 
48 155 
48 157 
48 159 
49 50 
49 82 
49 84 
49 86 
49 88 
49 90 
49 92 
49 94 
49 96 
49 98 
49 99 
49 101 
49 104 
49 105 
49 107 
49 110 
49 112 
49 114 
49 115 
49 118 
49 120 
49 122 
49 123 
49 126 
49 128 
49 130 
49 132 
49 133 
49 136 
49 138 
49 139 
49 142 
49 143 
49 146 
49 147 
49 150 
49 152 
49 154 
49 156 
49 158 
49 160 
50 81 
50 83 
50 85 
50 87 
50 89 
50 91 
50 93 
50 95 
50 97 
50 100 
50 102 
50 103 
50 106 
50 108 
50 109 
50 111 
50 113 
50 116 
50 117 
50 119 
50 121 
50 124 
50 125 
50 127 
50 129 
50 131 
50 134 
50 135 
50 137 
50 140 
50 141 
50 144 
50 145 
50 148 
50 149 
50 151 
50 153 
50 155 
50 157 
50 159 
51 52 
51 81 
51 83 
51 86 
51 87 
51 90 
51 91 
51 93 
51 96 
51 98 
51 99 
51 101 
51 103 
51 106 
51 108 
51 109 
51 111 
51 114 
51 116 
51 117 
51 119 
51 122 
51 124 
51 126 
51 128 
51 129 
51 131 
51 133 
51 136 
51 137 
51 139 
51 141 
51 144 
51 146 
51 147 
51 150 
51 152 
51 154 
51 155 
51 158 
51 160 
52 82 
52 84 
52 85 
52 88 
52 89 
52 92 
52 94 
52 95 
52 97 
52 100 
52 102 
52 104 
52 105 
52 107 
52 110 
52 112 
52 113 
52 115 
52 118 
52 120 
52 121 
52 123 
52 125 
52 127 
52 130 
52 132 
52 134 
52 135 
52 138 
52 140 
52 142 
52 143 
52 145 
52 148 
52 149 
52 151 
52 153 
52 156 
52 157 
52 159 
53 54 
53 81 
53 84 
53 86 
53 88 
53 89 
53 91 
53 94 
53 96 
53 98 
53 99 
53 102 
53 103 
53 106 
53 107 
53 109 
53 111 
53 114 
53 115 
53 117 
53 119 
53 121 
53 123 
53 125 
53 128 
53 130 
53 132 
53 134 
53 135 
53 138 
53 139 
53 142 
53 144 
53 146 
53 148 
53 150 
53 151 
53 154 
53 155 
53 157 
53 159 
54 82 
54 83 
54 85 
54 87 
54 90 
54 92 
54 93 
54 95 
54 97 
54 100 
54 101 
54 104 
54 105 
54 108 
54 110 
54 112 
54 113 
54 116 
54 118 
54 120 
54 122 
54 124 
54 126 
54 127 
54 129 
54 131 
54 133 
54 136 
54 137 
54 140 
54 141 
54 143 
54 145 
54 147 
54 149 
54 152 
54 153 
54 156 
54 158 
54 160 
55 56 
55 82 
55 83 
55 86 
55 88 
55 90 
55 91 
55 93 
55 95 
55 97 
55 100 
55 102 
55 104 
55 106 
55 107 
55 109 
55 112 
55 114 
55 116 
55 118 
55 120 
55 122 
55 123 
55 125 
55 128 
55 130 
55 131 
55 133 
55 135 
55 137 
55 139 
55 141 
55 143 
55 146 
55 148 
55 149 
55 152 
55 154 
55 155 
55 157 
55 159 
56 81 
56 84 
56 85 
56 87 
56 89 
56 92 
56 94 
56 96 
56 98 
56 99 
56 101 
56 103 
56 105 
56 108 
56 110 
56 111 
56 113 
56 115 
56 117 
56 119 
56 121 
56 124 
56 126 
56 127 
56 129 
56 132 
56 134 
56 136 
56 138 
56 140 
56 142 
56 144 
56 145 
56 147 
56 150 
56 151 
56 153 
56 156 
56 158 
56 160 
57 58 
57 82 
57 83 
57 85 
57 88 
57 89 
57 91 
57 94 
57 95 
57 98 
57 99 
57 102 
57 103 
57 106 
57 108 
57 110 
57 112 
57 114 
57 116 
57 118 
57 119 
57 121 
57 123 
57 125 
57 128 
57 129 
57 132 
57 133 
57 136 
57 137 
57 139 
57 142 
57 144 
57 145 
57 147 
57 149 
57 152 
57 153 
57 156 
57 158 
57 159 
58 81 
58 84 
58 86 
58 87 
58 90 
58 92 
58 93 
58 96 
58 97 
58 100 
58 101 
58 104 
58 105 
58 107 
58 109 
58 111 
58 113 
58 115 
58 117 
58 120 
58 122 
58 124 
58 126 
58 127 
58 130 
58 131 
58 134 
58 135 
58 138 
58 140 
58 141 
58 143 
58 146 
58 148 
58 150 
58 151 
58 154 
58 155 
58 157 
58 160 
59 60 
59 81 
59 84 
59 85 
59 87 
59 89 
59 91 
59 94 
59 95 
59 97 
59 100 
59 101 
59 103 
59 105 
59 107 
59 110 
59 112 
59 113 
59 116 
59 117 
59 119 
59 122 
59 123 
59 126 
59 128 
59 130 
59 132 
59 134 
59 136 
59 137 
59 139 
59 141 
59 144 
59 146 
59 148 
59 149 
59 152 
59 154 
59 156 
59 157 
59 160 
60 82 
60 83 
60 86 
60 88 
60 90 
60 92 
60 93 
60 96 
60 98 
60 99 
60 102 
60 104 
60 106 
60 108 
60 109 
60 111 
60 114 
60 115 
60 118 
60 120 
60 121 
60 124 
60 125 
60 127 
60 129 
60 131 
60 133 
60 135 
60 138 
60 140 
60 142 
60 143 
60 145 
60 147 
60 150 
60 151 
60 153 
60 155 
60 158 
60 159 
61 62 
61 82 
61 83 
61 85 
61 88 
61 89 
61 91 
61 93 
61 96 
61 97 
61 99 
61 101 
61 103 
61 106 
61 108 
61 110 
61 111 
61 114 
61 115 
61 118 
61 119 
61 122 
61 123 
61 125 
61 127 
61 130 
61 131 
61 134 
61 136 
61 138 
61 140 
61 141 
61 143 
61 146 
61 148 
61 150 
61 152 
61 153 
61 156 
61 157 
61 160 
62 81 
62 84 
62 86 
62 87 
62 90 
62 92 
62 94 
62 95 
62 98 
62 100 
62 102 
62 104 
62 105 
62 107 
62 109 
62 112 
62 113 
62 116 
62 117 
62 120 
62 121 
62 124 
62 126 
62 128 
62 129 
62 132 
62 133 
62 135 
62 137 
62 139 
62 142 
62 144 
62 145 
62 147 
62 149 
62 151 
62 154 
62 155 
62 158 
62 159 
63 64 
63 81 
63 83 
63 85 
63 88 
63 89 
63 92 
63 93 
63 95 
63 98 
63 100 
63 101 
63 104 
63 106 
63 107 
63 110 
63 111 
63 113 
63 115 
63 117 
63 120 
63 122 
63 124 
63 125 
63 128 
63 129 
63 131 
63 133 
63 136 
63 138 
63 139 
63 142 
63 144 
63 145 
63 148 
63 150 
63 152 
63 154 
63 156 
63 157 
63 159 
64 82 
64 84 
64 86 
64 87 
64 90 
64 91 
64 94 
64 96 
64 97 
64 99 
64 102 
64 103 
64 105 
64 108 
64 109 
64 112 
64 114 
64 116 
64 118 
64 119 
64 121 
64 123 
64 126 
64 127 
64 130 
64 132 
64 134 
64 135 
64 137 
64 140 
64 141 
64 143 
64 146 
64 147 
64 149 
64 151 
64 153 
64 155 
64 158 
64 160 
65 66 
65 82 
65 84 
65 86 
65 87 
65 90 
65 91 
65 93 
65 96 
65 98 
65 99 
65 102 
65 103 
65 106 
65 107 
65 110 
65 112 
65 113 
65 115 
65 117 
65 119 
65 122 
65 124 
65 126 
65 128 
65 129 
65 132 
65 133 
65 135 
65 138 
65 140 
65 141 
65 143 
65 145 
65 148 
65 149 
65 152 
65 153 
65 156 
65 157 
65 159 
66 81 
66 83 
66 85 
66 88 
66 89 
66 92 
66 94 
66 95 
66 97 
66 100 
66 101 
66 104 
66 105 
66 108 
66 109 
66 111 
66 114 
66 116 
66 118 
66 120 
66 121 
66 123 
66 125 
66 127 
66 130 
66 131 
66 134 
66 136 
66 137 
66 139 
66 142 
66 144 
66 146 
66 147 
66 150 
66 151 
66 154 
66 155 
66 158 
66 160 
67 68 
67 82 
67 83 
67 85 
67 87 
67 89 
67 92 
67 94 
67 95 
67 98 
67 100 
67 102 
67 103 
67 105 
67 107 
67 109 
67 112 
67 114 
67 115 
67 118 
67 119 
67 122 
67 124 
67 125 
67 127 
67 129 
67 132 
67 133 
67 135 
67 138 
67 140 
67 141 
67 144 
67 146 
67 147 
67 150 
67 152 
67 154 
67 155 
67 157 
67 160 
68 81 
68 84 
68 86 
68 88 
68 90 
68 91 
68 93 
68 96 
68 97 
68 99 
68 101 
68 104 
68 106 
68 108 
68 110 
68 111 
68 113 
68 116 
68 117 
68 120 
68 121 
68 123 
68 126 
68 128 
68 130 
68 131 
68 134 
68 136 
68 137 
68 139 
68 142 
68 143 
68 145 
68 148 
68 149 
68 151 
68 153 
68 156 
68 158 
68 159 
69 70 
69 82 
69 84 
69 86 
69 88 
69 90 
69 91 
69 94 
69 95 
69 97 
69 100 
69 101 
69 103 
69 106 
69 107 
69 110 
69 111 
69 113 
69 116 
69 118 
69 119 
69 122 
69 124 
69 125 
69 127 
69 129 
69 132 
69 134 
69 136 
69 138 
69 139 
69 141 
69 143 
69 145 
69 147 
69 150 
69 151 
69 154 
69 155 
69 158 
69 159 
70 81 
70 83 
70 85 
70 87 
70 89 
70 92 
70 93 
70 96 
70 98 
70 99 
70 102 
70 104 
70 105 
70 108 
70 109 
70 112 
70 114 
70 115 
70 117 
70 120 
70 121 
70 123 
70 126 
70 128 
70 130 
70 131 
70 133 
70 135 
70 137 
70 140 
70 142 
70 144 
70 146 
70 148 
70 149 
70 152 
70 153 
70 156 
70 157 
70 160 
71 72 
71 82 
71 83 
71 85 
71 88 
71 90 
71 92 
71 94 
71 96 
71 97 
71 99 
71 101 
71 103 
71 106 
71 107 
71 109 
71 111 
71 113 
71 116 
71 117 
71 120 
71 121 
71 124 
71 125 
71 128 
71 129 
71 132 
71 134 
71 135 
71 137 
71 140 
71 142 
71 143 
71 146 
71 147 
71 149 
71 152 
71 154 
71 156 
71 157 
71 160 
72 81 
72 84 
72 86 
72 87 
72 89 
72 91 
72 93 
72 95 
72 98 
72 100 
72 102 
72 104 
72 105 
72 108 
72 110 
72 112 
72 114 
72 115 
72 118 
72 119 
72 122 
72 123 
72 126 
72 127 
72 130 
72 131 
72 133 
72 136 
72 138 
72 139 
72 141 
72 144 
72 145 
72 148 
72 150 
72 151 
72 153 
72 155 
72 158 
72 159 
73 74 
73 81 
73 83 
73 85 
73 87 
73 90 
73 91 
73 94 
73 96 
73 97 
73 100 
73 102 
73 104 
73 106 
73 108 
73 109 
73 112 
73 114 
73 115 
73 117 
73 120 
73 121 
73 123 
73 126 
73 127 
73 129 
73 132 
73 134 
73 136 
73 138 
73 139 
73 141 
73 143 
73 145 
73 147 
73 150 
73 152 
73 154 
73 156 
73 157 
73 159 
74 82 
74 84 
74 86 
74 88 
74 89 
74 92 
74 93 
74 95 
74 98 
74 99 
74 101 
74 103 
74 105 
74 107 
74 110 
74 111 
74 113 
74 116 
74 118 
74 119 
74 122 
74 124 
74 125 
74 128 
74 130 
74 131 
74 133 
74 135 
74 137 
74 140 
74 142 
74 144 
74 146 
74 148 
74 149 
74 151 
74 153 
74 155 
74 158 
74 160 
75 76 
75 81 
75 84 
75 85 
75 88 
75 90 
75 91 
75 94 
75 95 
75 98 
75 99 
75 102 
75 104 
75 105 
75 108 
75 110 
75 111 
75 114 
75 116 
75 117 
75 120 
75 122 
75 124 
75 125 
75 127 
75 129 
75 132 
75 133 
75 135 
75 137 
75 139 
75 141 
75 143 
75 146 
75 148 
75 150 
75 151 
75 153 
75 156 
75 157 
75 160 
76 82 
76 83 
76 86 
76 87 
76 89 
76 92 
76 93 
76 96 
76 97 
76 100 
76 101 
76 103 
76 106 
76 107 
76 109 
76 112 
76 113 
76 115 
76 118 
76 119 
76 121 
76 123 
76 126 
76 128 
76 130 
76 131 
76 134 
76 136 
76 138 
76 140 
76 142 
76 144 
76 145 
76 147 
76 149 
76 152 
76 154 
76 155 
76 158 
76 159 
77 78 
77 81 
77 83 
77 86 
77 87 
77 90 
77 91 
77 94 
77 96 
77 97 
77 99 
77 101 
77 104 
77 105 
77 107 
77 110 
77 112 
77 114 
77 116 
77 118 
77 119 
77 121 
77 124 
77 125 
77 127 
77 129 
77 131 
77 133 
77 136 
77 138 
77 140 
77 142 
77 144 
77 146 
77 148 
77 149 
77 151 
77 154 
77 156 
77 157 
77 159 
78 82 
78 84 
78 85 
78 88 
78 89 
78 92 
78 93 
78 95 
78 98 
78 100 
78 102 
78 103 
78 106 
78 108 
78 109 
78 111 
78 113 
78 115 
78 117 
78 120 
78 122 
78 123 
78 126 
78 128 
78 130 
78 132 
78 134 
78 135 
78 137 
78 139 
78 141 
78 143 
78 145 
78 147 
78 150 
78 152 
78 153 
78 155 
78 158 
78 160 
79 80 
79 81 
79 83 
79 85 
79 87 
79 90 
79 92 
79 94 
79 95 
79 97 
79 99 
79 102 
79 103 
79 106 
79 107 
79 110 
79 111 
79 114 
79 115 
79 118 
79 120 
79 122 
79 124 
79 126 
79 128 
79 130 
79 131 
79 134 
79 135 
79 138 
79 139 
79 141 
79 144 
79 146 
79 147 
79 149 
79 151 
79 153 
79 156 
79 158 
79 159 
80 82 
80 84 
80 86 
80 88 
80 89 
80 91 
80 93 
80 96 
80 98 
80 100 
80 101 
80 104 
80 105 
80 108 
80 109 
80 112 
80 113 
80 116 
80 117 
80 119 
80 121 
80 123 
80 125 
80 127 
80 129 
80 132 
80 133 
80 136 
80 137 
80 140 
80 142 
80 143 
80 145 
80 148 
80 150 
80 152 
80 154 
80 155 
80 157 
80 160 
81 82 
83 84 
85 86 
87 88 
89 90 
91 92 
93 94 
95 96 
97 98 
99 100 
101 102 
103 104 
105 106 
107 108 
109 110 
111 112 
113 114 
115 116 
117 118 
119 120 
121 122 
123 124 
125 126 
127 128 
129 130 
131 132 
133 134 
135 136 
137 138 
139 140 
141 142 
143 144 
145 146 
147 148 
149 150 
151 152 
153 154 
155 156 
157 158 
159 160 
